
Gurobi 9.1.2 (linux64) logging started Wed Jun 15 18:46:57 2022

Changed value of parameter LogFile to ls3_sym_v-(6, 1).log
   Prev:   Default: 
Changed value of parameter MIPFocus to 1
   Prev: 0  Min: 0  Max: 3  Default: 0
Changed value of parameter TimeLimit to 10800.0
   Prev: inf  Min: 0.0  Max: inf  Default: inf
Warning: variable name "X[(5, 5),(7, 5)]" has a space
Warning: constraint name "flow-constr-t0-v(7, 5)" has a space
Warning: to let Gurobi read it back, use rlp format
Gurobi Optimizer version 9.1.2 build v9.1.2rc0 (linux64)
Thread count: 32 physical cores, 64 logical processors, using up to 32 threads
Optimize a model with 5095 rows, 4608 columns and 17600 nonzeros
Model fingerprint: 0xd0314218
Variable types: 512 continuous, 4096 integer (4096 binary)
Coefficient statistics:
  Matrix range     [1e+00, 7e+04]
  Objective range  [1e-01, 1e-01]
  Bounds range     [1e+00, 3e+04]
  RHS range        [1e+00, 7e+04]
Presolve removed 339 rows and 352 columns
Presolve time: 0.10s
Presolved: 4756 rows, 4256 columns, 24357 nonzeros
Variable types: 512 continuous, 3744 integer (3744 binary)

Root relaxation: objective 6.400000e+01, 151 iterations, 0.00 seconds

    Nodes    |    Current Node    |     Objective Bounds      |     Work
 Expl Unexpl |  Obj  Depth IntInf | Incumbent    BestBd   Gap | It/Node Time

     0     0   64.00000    0   38          -   64.00000      -     -    0s
     0     0   64.00000    0   57          -   64.00000      -     -    0s
     0     0   64.00000    0   60          -   64.00000      -     -    0s
     0     0   64.00000    0   50          -   64.00000      -     -    0s
     0     0   64.00000    0   52          -   64.00000      -     -    0s
     0     0   64.00000    0   84          -   64.00000      -     -    0s
     0     0   64.00000    0   93          -   64.00000      -     -    0s
     0     0   64.00000    0   64          -   64.00000      -     -    0s
     0     0   64.00000    0   61          -   64.00000      -     -    0s
H    0     0                    294962.00000   64.00000   100%     -    0s
     0     0   64.00000    0   52 294962.000   64.00000   100%     -    0s
H    0     0                     106.5000000   64.00000  39.9%     -    0s
H    0     0                     106.3750000   64.00000  39.8%     -    1s
H    0     2                     100.3750000   64.00000  36.2%     -    1s
     0     2   64.00000    0   34  100.37500   64.00000  36.2%     -    1s
H    1     4                      98.3750000   64.00000  34.9%  1032    1s
H    3     8                      94.5000000   64.00000  32.3%   370    1s
H   31    60                      93.3750000   64.00000  31.5%  56.2    2s
H   32    60                      92.1000000   64.00000  30.5%  54.5    2s
H   33    60                      86.3958333   64.00000  25.9%  52.9    2s
H   37    60                      85.0000000   64.00000  24.7%  47.3    2s
H   57    60                      84.8125000   64.00000  24.5%  33.5    2s
H   95   124                      83.2500000   64.00000  23.1%  22.3    3s
H   95   124                      82.1607143   64.00000  22.1%  22.3    3s
H   96   124                      81.9625000   64.00000  21.9%  22.2    3s
H  105   124                      81.8500000   64.00000  21.8%  20.4    3s
H  105   124                      81.8333333   64.00000  21.8%  20.4    3s
H  106   124                      81.4375000   64.00000  21.4%  20.2    3s
H  107   124                      78.1607143   64.00000  18.1%  20.0    3s
H  159   186                      76.4687500   64.00000  16.3%  14.3    3s
H  161   186                      76.2500000   64.00000  16.1%  14.1    3s
H  191   218                      76.0000000   64.00000  15.8%  12.1    3s
H  200   218                      75.7500000   64.00000  15.5%  11.8    3s
H  223   251                      74.5000000   64.00000  14.1%  10.8    4s
H  226   251                      72.9642857   64.00000  12.3%  10.7    4s
H  256   306                      72.8392857   64.00000  12.1%   9.9    5s
H  257   306                      72.8390726   64.00000  12.1%   9.9    5s
H  258   306                      72.7142857   64.00000  12.0%   9.9    5s
H  260   306                      72.5357143   64.00000  11.8%   9.8    5s
H  265   306                      72.4107143   64.00000  11.6%   9.7    5s
H  292   306                      71.4107143   64.00000  10.4%   9.1    5s
H  315   591                      70.4250000   64.00000  9.12%   8.8    6s
H  316   591                      69.8437500   64.00000  8.37%   8.8    6s
H  347   591                      69.8125000   64.00000  8.33%   8.2    6s
H  399   591                      69.4583333   64.00000  7.86%   7.6    6s
H  429   591                      68.9821429   64.00000  7.22%   7.4    6s
H  476   591                      68.9583333   64.00000  7.19%   7.1    6s
H  734  2109                      68.9166667   64.00000  7.13%   6.0    7s
H  793  2109                      68.8750000   64.00000  7.08%   5.8    7s
H 1119  2109                      68.8333333   64.00000  7.02%   7.1    7s
H 2406  2269                      68.5833333   64.00000  6.68%   7.1    9s
  2571  3607   64.00000   66   98   68.58333   64.00000  6.68%   7.6   11s
H 2597  3564                      67.2812500   64.00000  4.88%   8.6   11s
H 2600  3564                      67.2750000   64.00000  4.87%   8.6   11s
H 2630  3564                      67.2734375   64.00000  4.87%   8.5   11s
H 2770  3552                      67.0909091   64.00000  4.61%   8.3   11s
H 3660  3552                      67.0625000   64.00000  4.57%   7.9   11s
H 4301  3497                      67.0500000   64.00000  4.55%   7.4   11s
H 4306  3304                      67.0000000   64.00000  4.48%   7.4   12s
  4345  3363   64.00000   16   60   67.00000   64.00000  4.48%  14.0   15s
H 4362  3191                      66.9999998   64.00000  4.48%  14.1   15s
H 4409  3082                      66.9999997   64.00000  4.48%  14.3   17s
H 4412  2931                      66.9999996   64.00000  4.48%  14.3   17s
H 4473  2833                      66.9999995   64.00000  4.48%  14.5   21s
H 4476  2697                      66.9999995   64.00000  4.48%  14.6   21s
H 4477  2569                      66.9999995   64.00000  4.48%  14.6   21s
H 4478  2446                      66.9999995   64.00000  4.48%  14.6   21s
H 4482  2329                      66.9999994   64.00000  4.48%  14.6   21s
H 4503  2213                      66.7142857   64.00000  4.07%  14.7   21s
H 4559  2342                      66.7142843   64.00000  4.07%  14.7   22s
H 4566  2241                      66.6875000   64.00000  4.03%  14.8   22s
H 4573  2145                      66.5000000   64.00000  3.76%  14.8   22s
H 4645  2031                      66.2500000   64.00000  3.40%  14.9   22s
H 5430  5197                      66.0208333   64.00000  3.06%  14.9   23s
H 6381  4799                      66.0000000   64.00000  3.03%  14.4   23s
H 8357  4145                      65.9375000   64.00000  2.94%  13.2   24s
H 8370  4068                      65.9166667   64.00000  2.91%  13.2   24s
H 8373  4039                      65.9097222   64.00000  2.90%  13.2   24s
H 8495  4065                      65.8125000   64.00000  2.75%  13.1   26s
H 8498  4065                      65.5000000   64.00000  2.29%  13.1   26s
H15207  9842                      65.4999999   64.00000  2.29%  11.9   30s
H15220  9842                      65.4999999   64.00000  2.29%  11.9   30s
 19059 12847   64.00000   32   70   65.50000   64.00000  2.29%  11.5   38s
H19066 12847                      65.4999999   64.00000  2.29%  11.5   38s
H19078 12847                      65.4999998   64.00000  2.29%  11.5   38s
H19079 12847                      65.4999998   64.00000  2.29%  11.5   38s
H19080 12350                      65.1250000   64.00000  1.73%  11.5   38s
H19707 14070                      65.0000000   64.00000  1.54%  11.4   39s
 21493 14525   64.00000  109  101   65.00000   64.00000  1.54%  11.3   40s
 29587 25564   64.00000   26   45   65.00000   64.00000  1.54%  11.0   46s
 40938 35217   64.00000   47   65   65.00000   64.00000  1.54%  11.1   50s
 53889 40604   64.00000  221  126   65.00000   64.00000  1.54%  11.0   59s
H53907 40604                      64.9999999   64.00000  1.54%  11.0   59s
 53926 45107   64.75000  222  131   65.00000   64.00000  1.54%  11.0   60s
H56683 45107                      64.9999998   64.00000  1.54%  10.9   61s
H59269 48272                      64.9999998   64.00000  1.54%  10.9   63s
H59838 48272                      64.9999997   64.00000  1.54%  10.8   63s
H59869 48272                      64.9999996   64.00000  1.54%  10.8   63s
H62813 61140                      64.9999995   64.00000  1.54%  10.8   67s
H63315 61140                      64.9999994   64.00000  1.54%  10.8   67s
H66085 61140                      64.9999994   64.00000  1.54%  10.7   67s
H67751 61140                      64.9999994   64.00000  1.54%  10.7   67s
H68420 61140                      64.9999993   64.00000  1.54%  10.7   67s
H78362 62491                      64.9999992   64.00000  1.54%  10.5   69s
H78433 62491                      64.9999992   64.00000  1.54%  10.5   69s
H79044 62491                      64.9999992   64.00000  1.54%  10.6   69s
 79398 63784     cutoff  143        65.00000   64.00000  1.54%  10.6   72s
H79577 63784                      64.9999992   64.00000  1.54%  10.6   72s
H79578 63784                      64.9999991   64.00000  1.54%  10.6   72s
H79872 63784                      64.9999991   64.00000  1.54%  10.6   72s
H82648 72393                      64.9999990   64.00000  1.54%  10.6   74s
H87260 72393                      64.9999990   64.00000  1.54%  10.6   74s
 90957 88121   64.00000  195   95   65.00000   64.00000  1.54%  10.6   78s
H108571 88209                      64.9999982   64.00000  1.54%  10.3   79s
 108600 88966   64.00000  560  113   65.00000   64.00000  1.54%  10.3   83s
H109068 88966                      64.9999979   64.00000  1.54%  10.3   83s
H109224 88966                      64.9999975   64.00000  1.54%  10.3   83s
H109433 88966                      64.9999971   64.00000  1.54%  10.3   83s
 109434 94316   64.00000  586  114   65.00000   64.00000  1.54%  10.3   85s
 115942 98926     cutoff  774        65.00000   64.00000  1.54%  10.4   91s
 129489 112925   64.00000  190  126   65.00000   64.00000  1.54%  10.4   96s
H138521 112957                      64.9999962   64.00000  1.54%  10.3   98s
 138536 113807   64.00000  142  101   65.00000   64.00000  1.54%  10.3  101s
 145886 126891   64.00000  320   99   65.00000   64.00000  1.54%  10.2  106s
 154309 127614     cutoff  578        65.00000   64.00000  1.54%  10.2  110s
 155130 152869   64.25000  577  104   65.00000   64.00000  1.54%  10.2  118s
 187162 154274     cutoff   88        65.00000   64.00000  1.54%  10.4  120s
 188848 165201   64.00000   87   96   65.00000   64.00000  1.54%  10.4  129s
 201394 165233   64.00000  457  131   65.00000   64.00000  1.54%  10.3  133s
 201434 178858   64.00000  458  131   65.00000   64.00000  1.54%  10.3  137s
 222889 183539   64.50000  520  102   65.00000   64.00000  1.54%  10.3  144s
 222924 184266   64.50000  521  104   65.00000   64.00000  1.54%  10.3  148s
 223794 198454   64.50000  548   98   65.00000   64.00000  1.54%  10.3  152s
 240079 198481   64.00000   69  100   65.00000   64.00000  1.54%  10.2  156s
H240113 198481                      64.9999953   64.00000  1.54%  10.2  156s
 247656 209408   64.00000  246  127   65.00000   64.00000  1.54%  10.2  160s
 253174 209437   64.00000  154  100   65.00000   64.00000  1.54%  10.2  165s
 265906 222804   64.50000  141  112   65.00000   64.00000  1.54%  10.3  172s
 275375 230102   64.00000  104  112   65.00000   64.00000  1.54%  10.3  176s
 290517 239873   64.00000  341  143   65.00000   64.00000  1.54%  10.3  182s
H292362 243790                      64.9868421   64.00000  1.52%  10.3  183s
H295642 243774                      64.9166665   64.00000  1.41%  10.4  186s
H295643 229501                      64.7500000   64.00000  1.16%  10.4  186s
H295650 197336                      64.2500000   64.00000  0.39%  10.4  186s
 296581 200714   64.00000  106  123   64.25000   64.00000  0.39%  10.4  190s
H297349 200714                      64.2499999   64.00000  0.39%  10.4  190s
 313533 216173   64.00000  267  102   64.25000   64.00000  0.39%  10.4  195s
H314577 216173                      64.2499999   64.00000  0.39%  10.4  195s
H314685 216173                      64.2499998   64.00000  0.39%  10.4  195s
 335541 231447   64.00000  214   77   64.25000   64.00000  0.39%  10.3  202s
H335827 231447                      64.2499996   64.00000  0.39%  10.3  202s
 344539 238583   64.00000  544  101   64.25000   64.00000  0.39%  10.3  207s
 345300 265381   64.00000  574   78   64.25000   64.00000  0.39%  10.3  212s
H364319 265381                      64.2499996   64.00000  0.39%  10.3  212s
 377332 272175   64.00000  425  114   64.25000   64.00000  0.39%  10.3  215s
H392425 281276                      64.2499995   64.00000  0.39%  10.3  216s
H396657 281307                      64.2499994   64.00000  0.39%  10.3  219s
 396690 283429 infeasible  497        64.25000   64.00000  0.39%  10.3  220s
H397726 283429                      64.2499993   64.00000  0.39%  10.3  220s
 399414 283455   64.00000  207  110   64.25000   64.00000  0.39%  10.3  225s
H399426 283455                      64.2499930   64.00000  0.39%  10.3  225s
H400033 285905                      64.2499930   64.00000  0.39%  10.3  226s
 402354 286429   64.00000  360  142   64.24999   64.00000  0.39%  10.3  231s
H402854 286296                      64.1875000   64.00000  0.29%  10.3  231s
H403100 287423                      64.1250000   64.00000  0.19%  10.3  233s
H405301 287423                      64.1250000   64.00000  0.19%  10.3  233s
 411462 295413     cutoff  293        64.12500   64.00000  0.19%  10.3  236s
H411896 295413                      64.1249998   64.00000  0.19%  10.3  236s
H413647 10285                      64.0000000   64.00000  0.00%  10.3  236s

Cutting planes:
  Learned: 16
  Cover: 99
  Implied bound: 57
  Clique: 54
  MIR: 128
  StrongCG: 1
  Flow cover: 114
  GUB cover: 1
  RLT: 27
  Relax-and-lift: 218

Explored 421356 nodes (4354981 simplex iterations) in 236.58 seconds
Thread count was 32 (of 64 available processors)

Solution count 10: 64 64.125 64.125 ... 64.25

Optimal solution found (tolerance 1.00e-04)
Best objective 6.400000000000e+01, best bound 6.400000000000e+01, gap 0.0000%
